c Qdimacs file from skolem function generator
p cnf 821 2409
a 438 440 442 444 446 448 450 452 454 456 458 460 462 464 466 468 470 472 474 476 478 480 482 484 486 488 490 492 494 496 498 500 502 504 506 508 510 512 514 516 518 520 522 524 526 528 530 532 534 536 538 540 542 544 546 548 550 552 554 556 558 560 562 564 566 568 570 572 574 576 578 580 582 584 586 588 590 592 594 596 598 600 602 604 606 608 610 612 614 616 618 620 622 624 626 628 630 632 634 636 638 640 642 644 646 648 650 652 654 656 658 660 662 664 666 668 670 672 674 676 678 680 682 684 686 688 690 692 693 694 695 696 697 698 699 700 701 702 703 704 705 706 707 708 709 710 711 712 713 714 715 716 717 718 719 720 721 722 723 724 725 726 727 728 729 730 731 732 733 734 735 736 737 738 739 740 741 742 743 744 745 746 747 748 749 750 751 752 753 754 755 756 757 758 759 760 761 762 763 764 765 766 767 768 769 770 771 772 773 774 775 776 777 778 779 780 781 782 783 784 785 786 787 788 789 790 791 792 793 794 795 796 797 798 799 800 801 802 803 804 805 806 807 808 809 810 811 812 813 814 815 816 817 818 819 820 0
e 437 439 441 443 445 447 449 451 453 455 457 459 461 463 465 467 469 471 473 475 477 479 481 483 485 487 489 491 493 495 497 499 501 503 505 507 509 511 513 515 517 519 521 523 525 527 529 531 533 535 537 539 541 543 545 547 549 551 553 555 557 559 561 563 565 567 569 571 573 575 577 579 581 583 585 587 589 591 593 595 597 599 601 603 605 607 609 611 613 615 617 619 621 623 625 627 629 631 633 635 637 639 641 643 645 647 649 651 653 655 657 659 661 663 665 667 669 671 673 675 677 679 681 683 685 687 689 691 1 2 3 4 5 6 7 8 9 10 11 12 13 14 15 16 17 18 19 20 21 22 23 24 25 26 27 28 29 30 31 32 33 34 35 36 37 38 39 40 41 42 43 44 45 46 47 48 49 50 51 52 53 54 55 56 57 58 59 60 61 62 63 64 65 66 67 68 69 70 71 72 73 74 75 76 77 78 79 80 81 82 83 84 85 86 87 88 89 90 91 92 93 94 95 96 97 98 99 100 101 102 103 104 105 106 107 108 109 110 111 112 113 114 115 116 117 118 119 120 121 122 123 124 125 126 127 128 129 130 131 132 133 134 135 136 137 138 139 140 141 142 143 144 145 146 147 148 149 150 151 152 153 154 155 156 157 158 159 160 161 162 163 164 165 166 167 168 169 170 171 172 173 174 175 176 177 178 179 180 181 182 183 184 185 186 187 188 189 190 191 192 193 194 195 196 197 198 199 200 201 202 203 204 205 206 207 208 209 210 211 212 213 214 215 216 217 218 219 220 221 222 223 224 225 226 227 228 229 230 231 232 233 234 235 236 237 238 239 240 241 242 243 244 245 246 247 248 249 250 251 252 253 254 255 256 257 258 259 260 261 262 263 264 265 266 267 268 269 270 271 272 273 274 275 276 277 278 279 280 281 282 283 284 285 286 287 288 289 290 291 292 293 294 295 296 297 298 299 300 301 302 303 304 305 306 307 308 309 310 311 312 313 314 315 316 317 318 319 320 321 322 323 324 325 326 327 328 329 330 331 332 333 334 335 336 337 338 339 340 341 342 343 344 345 346 347 348 349 350 351 352 353 354 355 356 357 358 359 360 361 362 363 364 365 366 367 368 369 370 371 372 373 374 375 376 377 378 379 380 381 382 383 384 385 386 387 388 389 390 391 392 393 394 395 396 397 398 399 400 401 402 403 404 405 406 407 408 409 410 411 412 413 414 415 416 417 418 419 420 421 422 423 424 425 426 427 428 429 430 431 432 433 434 435 436 821 0
4 5 175 345 -434 0
-4 434 0
-4 -345 0
-4 -5 0
-4 -175 0
5 6 -7 0
5 439 -694 6 0
-5 -6 0
-5 -439 7 0
-5 694 7 0
6 -437 693 0
-6 437 0
-6 -693 0
7 173 -174 0
7 8 -172 -174 0
-7 174 0
-7 -8 -173 0
-7 172 -173 0
8 170 -171 0
8 9 -169 -171 0
-8 171 0
-8 -9 -170 0
-8 169 -170 0
9 167 -168 0
9 10 -166 -168 0
-9 168 0
-9 -10 -167 0
-9 166 -167 0
10 164 -165 0
10 11 -163 -165 0
-10 165 0
-10 -11 -164 0
-10 163 -164 0
11 161 -162 0
11 12 -160 -162 0
-11 162 0
-11 -12 -161 0
-11 160 -161 0
12 158 -159 0
12 13 -157 -159 0
-12 159 0
-12 -13 -158 0
-12 157 -158 0
13 155 -156 0
13 14 -154 -156 0
-13 156 0
-13 -14 -155 0
-13 154 -155 0
14 152 -153 0
14 15 -151 -153 0
-14 153 0
-14 -15 -152 0
-14 151 -152 0
15 149 -150 0
15 16 -148 -150 0
-15 150 0
-15 -16 -149 0
-15 148 -149 0
16 146 -147 0
16 17 -145 -147 0
-16 147 0
-16 -17 -146 0
-16 145 -146 0
17 143 -144 0
17 18 -142 -144 0
-17 144 0
-17 -18 -143 0
-17 142 -143 0
18 140 -141 0
18 19 -139 -141 0
-18 141 0
-18 -19 -140 0
-18 139 -140 0
19 137 -138 0
19 20 -136 -138 0
-19 138 0
-19 -20 -137 0
-19 136 -137 0
20 134 -135 0
20 21 -133 -135 0
-20 135 0
-20 -21 -134 0
-20 133 -134 0
21 131 -132 0
21 22 -130 -132 0
-21 132 0
-21 -22 -131 0
-21 130 -131 0
22 128 -129 0
22 23 -127 -129 0
-22 129 0
-22 -23 -128 0
-22 127 -128 0
23 125 -126 0
23 24 -124 -126 0
-23 126 0
-23 -24 -125 0
-23 124 -125 0
24 122 -123 0
24 25 -121 -123 0
-24 123 0
-24 -25 -122 0
-24 121 -122 0
25 119 -120 0
25 26 -118 -120 0
-25 120 0
-25 -26 -119 0
-25 118 -119 0
26 116 -117 0
26 27 -115 -117 0
-26 117 0
-26 -27 -116 0
-26 115 -116 0
27 113 -114 0
27 28 -112 -114 0
-27 114 0
-27 -28 -113 0
-27 112 -113 0
28 110 -111 0
28 29 -109 -111 0
-28 111 0
-28 -29 -110 0
-28 109 -110 0
29 107 -108 0
29 30 -106 -108 0
-29 108 0
-29 -30 -107 0
-29 106 -107 0
30 104 -105 0
30 31 -103 -105 0
-30 105 0
-30 -31 -104 0
-30 103 -104 0
31 101 -102 0
31 32 -100 -102 0
-31 102 0
-31 -32 -101 0
-31 100 -101 0
32 98 -99 0
32 33 -97 -99 0
-32 99 0
-32 -33 -98 0
-32 97 -98 0
33 95 -96 0
33 34 -94 -96 0
-33 96 0
-33 -34 -95 0
-33 94 -95 0
34 92 -93 0
34 35 -91 -93 0
-34 93 0
-34 -35 -92 0
-34 91 -92 0
35 89 -90 0
35 36 -88 -90 0
-35 90 0
-35 -36 -89 0
-35 88 -89 0
36 86 -87 0
36 37 -85 -87 0
-36 87 0
-36 -37 -86 0
-36 85 -86 0
37 83 -84 0
37 38 -82 -84 0
-37 84 0
-37 -38 -83 0
-37 82 -83 0
38 80 -81 0
38 39 -79 -81 0
-38 81 0
-38 -39 -80 0
-38 79 -80 0
39 77 -78 0
39 40 -76 -78 0
-39 78 0
-39 -40 -77 0
-39 76 -77 0
40 74 -75 0
40 41 -73 -75 0
-40 75 0
-40 -41 -74 0
-40 73 -74 0
41 71 -72 0
41 42 -70 -72 0
-41 72 0
-41 -42 -71 0
-41 70 -71 0
42 68 -69 0
42 43 -67 -69 0
-42 69 0
-42 -43 -68 0
-42 67 -68 0
43 65 -66 0
43 44 -64 -66 0
-43 66 0
-43 -44 -65 0
-43 64 -65 0
44 62 -63 0
44 45 -61 -63 0
-44 63 0
-44 -45 -62 0
-44 61 -62 0
45 59 -60 0
45 46 -58 -60 0
-45 60 0
-45 -46 -59 0
-45 58 -59 0
46 56 -57 0
46 47 -55 -57 0
-46 57 0
-46 -47 -56 0
-46 55 -56 0
47 53 -54 0
47 48 -52 -54 0
-47 54 0
-47 -48 -53 0
-47 52 -53 0
48 -49 -51 0
48 50 -51 0
-48 51 0
-48 49 -50 0
49 -691 819 0
49 -689 820 0
49 -689 -691 0
49 819 820 0
-49 691 -820 0
-49 689 -819 0
50 687 689 0
50 -818 -819 0
50 687 -819 0
50 689 -818 0
-50 -687 818 0
-50 -689 819 0
51 -687 817 0
51 -685 818 0
51 -685 -687 0
51 817 818 0
-51 687 -818 0
-51 685 -817 0
52 683 685 0
52 -816 -817 0
52 683 -817 0
52 685 -816 0
-52 -683 816 0
-52 -685 817 0
53 -683 815 0
53 -681 816 0
53 -681 -683 0
53 815 816 0
-53 683 -816 0
-53 681 -815 0
54 679 681 0
54 -814 -815 0
54 679 -815 0
54 681 -814 0
-54 -679 814 0
-54 -681 815 0
55 -679 813 0
55 -677 814 0
55 -677 -679 0
55 813 814 0
-55 679 -814 0
-55 677 -813 0
56 675 677 0
56 -812 -813 0
56 675 -813 0
56 677 -812 0
-56 -675 812 0
-56 -677 813 0
57 -675 811 0
57 -673 812 0
57 -673 -675 0
57 811 812 0
-57 675 -812 0
-57 673 -811 0
58 671 673 0
58 -810 -811 0
58 671 -811 0
58 673 -810 0
-58 -671 810 0
-58 -673 811 0
59 -671 809 0
59 -669 810 0
59 -669 -671 0
59 809 810 0
-59 671 -810 0
-59 669 -809 0
60 667 669 0
60 -808 -809 0
60 667 -809 0
60 669 -808 0
-60 -667 808 0
-60 -669 809 0
61 -667 807 0
61 -665 808 0
61 -665 -667 0
61 807 808 0
-61 667 -808 0
-61 665 -807 0
62 663 665 0
62 -806 -807 0
62 663 -807 0
62 665 -806 0
-62 -663 806 0
-62 -665 807 0
63 -663 805 0
63 -661 806 0
63 -661 -663 0
63 805 806 0
-63 663 -806 0
-63 661 -805 0
64 659 661 0
64 -804 -805 0
64 659 -805 0
64 661 -804 0
-64 -659 804 0
-64 -661 805 0
65 -659 803 0
65 -657 804 0
65 -657 -659 0
65 803 804 0
-65 659 -804 0
-65 657 -803 0
66 655 657 0
66 -802 -803 0
66 655 -803 0
66 657 -802 0
-66 -655 802 0
-66 -657 803 0
67 -655 801 0
67 -653 802 0
67 -653 -655 0
67 801 802 0
-67 655 -802 0
-67 653 -801 0
68 651 653 0
68 -800 -801 0
68 651 -801 0
68 653 -800 0
-68 -651 800 0
-68 -653 801 0
69 -651 799 0
69 -649 800 0
69 -649 -651 0
69 799 800 0
-69 651 -800 0
-69 649 -799 0
70 647 649 0
70 -798 -799 0
70 647 -799 0
70 649 -798 0
-70 -647 798 0
-70 -649 799 0
71 -647 797 0
71 -645 798 0
71 -645 -647 0
71 797 798 0
-71 647 -798 0
-71 645 -797 0
72 643 645 0
72 -796 -797 0
72 643 -797 0
72 645 -796 0
-72 -643 796 0
-72 -645 797 0
73 -643 795 0
73 -641 796 0
73 -641 -643 0
73 795 796 0
-73 643 -796 0
-73 641 -795 0
74 639 641 0
74 -794 -795 0
74 639 -795 0
74 641 -794 0
-74 -639 794 0
-74 -641 795 0
75 -639 793 0
75 -637 794 0
75 -637 -639 0
75 793 794 0
-75 639 -794 0
-75 637 -793 0
76 635 637 0
76 -792 -793 0
76 635 -793 0
76 637 -792 0
-76 -635 792 0
-76 -637 793 0
77 -635 791 0
77 -633 792 0
77 -633 -635 0
77 791 792 0
-77 635 -792 0
-77 633 -791 0
78 631 633 0
78 -790 -791 0
78 631 -791 0
78 633 -790 0
-78 -631 790 0
-78 -633 791 0
79 -631 789 0
79 -629 790 0
79 -629 -631 0
79 789 790 0
-79 631 -790 0
-79 629 -789 0
80 627 629 0
80 -788 -789 0
80 627 -789 0
80 629 -788 0
-80 -627 788 0
-80 -629 789 0
81 -627 787 0
81 -625 788 0
81 -625 -627 0
81 787 788 0
-81 627 -788 0
-81 625 -787 0
82 623 625 0
82 -786 -787 0
82 623 -787 0
82 625 -786 0
-82 -623 786 0
-82 -625 787 0
83 -623 785 0
83 -621 786 0
83 -621 -623 0
83 785 786 0
-83 623 -786 0
-83 621 -785 0
84 619 621 0
84 -784 -785 0
84 619 -785 0
84 621 -784 0
-84 -619 784 0
-84 -621 785 0
85 -619 783 0
85 -617 784 0
85 -617 -619 0
85 783 784 0
-85 619 -784 0
-85 617 -783 0
86 615 617 0
86 -782 -783 0
86 615 -783 0
86 617 -782 0
-86 -615 782 0
-86 -617 783 0
87 -615 781 0
87 -613 782 0
87 -613 -615 0
87 781 782 0
-87 615 -782 0
-87 613 -781 0
88 611 613 0
88 -780 -781 0
88 611 -781 0
88 613 -780 0
-88 -611 780 0
-88 -613 781 0
89 -611 779 0
89 -609 780 0
89 -609 -611 0
89 779 780 0
-89 611 -780 0
-89 609 -779 0
90 607 609 0
90 -778 -779 0
90 607 -779 0
90 609 -778 0
-90 -607 778 0
-90 -609 779 0
91 -607 777 0
91 -605 778 0
91 -605 -607 0
91 777 778 0
-91 607 -778 0
-91 605 -777 0
92 603 605 0
92 -776 -777 0
92 603 -777 0
92 605 -776 0
-92 -603 776 0
-92 -605 777 0
93 -603 775 0
93 -601 776 0
93 -601 -603 0
93 775 776 0
-93 603 -776 0
-93 601 -775 0
94 599 601 0
94 -774 -775 0
94 599 -775 0
94 601 -774 0
-94 -599 774 0
-94 -601 775 0
95 -599 773 0
95 -597 774 0
95 -597 -599 0
95 773 774 0
-95 599 -774 0
-95 597 -773 0
96 595 597 0
96 -772 -773 0
96 595 -773 0
96 597 -772 0
-96 -595 772 0
-96 -597 773 0
97 -595 771 0
97 -593 772 0
97 -593 -595 0
97 771 772 0
-97 595 -772 0
-97 593 -771 0
98 591 593 0
98 -770 -771 0
98 591 -771 0
98 593 -770 0
-98 -591 770 0
-98 -593 771 0
99 -591 769 0
99 -589 770 0
99 -589 -591 0
99 769 770 0
-99 591 -770 0
-99 589 -769 0
100 587 589 0
100 -768 -769 0
100 587 -769 0
100 589 -768 0
-100 -587 768 0
-100 -589 769 0
101 -587 767 0
101 -585 768 0
101 -585 -587 0
101 767 768 0
-101 587 -768 0
-101 585 -767 0
102 583 585 0
102 -766 -767 0
102 583 -767 0
102 585 -766 0
-102 -583 766 0
-102 -585 767 0
103 -583 765 0
103 -581 766 0
103 -581 -583 0
103 765 766 0
-103 583 -766 0
-103 581 -765 0
104 579 581 0
104 -764 -765 0
104 579 -765 0
104 581 -764 0
-104 -579 764 0
-104 -581 765 0
105 -579 763 0
105 -577 764 0
105 -577 -579 0
105 763 764 0
-105 579 -764 0
-105 577 -763 0
106 575 577 0
106 -762 -763 0
106 575 -763 0
106 577 -762 0
-106 -575 762 0
-106 -577 763 0
107 -575 761 0
107 -573 762 0
107 -573 -575 0
107 761 762 0
-107 575 -762 0
-107 573 -761 0
108 571 573 0
108 -760 -761 0
108 571 -761 0
108 573 -760 0
-108 -571 760 0
-108 -573 761 0
109 -571 759 0
109 -569 760 0
109 -569 -571 0
109 759 760 0
-109 571 -760 0
-109 569 -759 0
110 567 569 0
110 -758 -759 0
110 567 -759 0
110 569 -758 0
-110 -567 758 0
-110 -569 759 0
111 -567 757 0
111 -565 758 0
111 -565 -567 0
111 757 758 0
-111 567 -758 0
-111 565 -757 0
112 563 565 0
112 -756 -757 0
112 563 -757 0
112 565 -756 0
-112 -563 756 0
-112 -565 757 0
113 -563 755 0
113 -561 756 0
113 -561 -563 0
113 755 756 0
-113 563 -756 0
-113 561 -755 0
114 559 561 0
114 -754 -755 0
114 559 -755 0
114 561 -754 0
-114 -559 754 0
-114 -561 755 0
115 -559 753 0
115 -557 754 0
115 -557 -559 0
115 753 754 0
-115 559 -754 0
-115 557 -753 0
116 555 557 0
116 -752 -753 0
116 555 -753 0
116 557 -752 0
-116 -555 752 0
-116 -557 753 0
117 -555 751 0
117 -553 752 0
117 -553 -555 0
117 751 752 0
-117 555 -752 0
-117 553 -751 0
118 551 553 0
118 -750 -751 0
118 551 -751 0
118 553 -750 0
-118 -551 750 0
-118 -553 751 0
119 -551 749 0
119 -549 750 0
119 -549 -551 0
119 749 750 0
-119 551 -750 0
-119 549 -749 0
120 547 549 0
120 -748 -749 0
120 547 -749 0
120 549 -748 0
-120 -547 748 0
-120 -549 749 0
121 -547 747 0
121 -545 748 0
121 -545 -547 0
121 747 748 0
-121 547 -748 0
-121 545 -747 0
122 543 545 0
122 -746 -747 0
122 543 -747 0
122 545 -746 0
-122 -543 746 0
-122 -545 747 0
123 -543 745 0
123 -541 746 0
123 -541 -543 0
123 745 746 0
-123 543 -746 0
-123 541 -745 0
124 539 541 0
124 -744 -745 0
124 539 -745 0
124 541 -744 0
-124 -539 744 0
-124 -541 745 0
125 -539 743 0
125 -537 744 0
125 -537 -539 0
125 743 744 0
-125 539 -744 0
-125 537 -743 0
126 535 537 0
126 -742 -743 0
126 535 -743 0
126 537 -742 0
-126 -535 742 0
-126 -537 743 0
127 -535 741 0
127 -533 742 0
127 -533 -535 0
127 741 742 0
-127 535 -742 0
-127 533 -741 0
128 531 533 0
128 -740 -741 0
128 531 -741 0
128 533 -740 0
-128 -531 740 0
-128 -533 741 0
129 -531 739 0
129 -529 740 0
129 -529 -531 0
129 739 740 0
-129 531 -740 0
-129 529 -739 0
130 527 529 0
130 -738 -739 0
130 527 -739 0
130 529 -738 0
-130 -527 738 0
-130 -529 739 0
131 -527 737 0
131 -525 738 0
131 -525 -527 0
131 737 738 0
-131 527 -738 0
-131 525 -737 0
132 523 525 0
132 -736 -737 0
132 523 -737 0
132 525 -736 0
-132 -523 736 0
-132 -525 737 0
133 -523 735 0
133 -521 736 0
133 -521 -523 0
133 735 736 0
-133 523 -736 0
-133 521 -735 0
134 519 521 0
134 -734 -735 0
134 519 -735 0
134 521 -734 0
-134 -519 734 0
-134 -521 735 0
135 -519 733 0
135 -517 734 0
135 -517 -519 0
135 733 734 0
-135 519 -734 0
-135 517 -733 0
136 515 517 0
136 -732 -733 0
136 515 -733 0
136 517 -732 0
-136 -515 732 0
-136 -517 733 0
137 -515 731 0
137 -513 732 0
137 -513 -515 0
137 731 732 0
-137 515 -732 0
-137 513 -731 0
138 511 513 0
138 -730 -731 0
138 511 -731 0
138 513 -730 0
-138 -511 730 0
-138 -513 731 0
139 -511 729 0
139 -509 730 0
139 -509 -511 0
139 729 730 0
-139 511 -730 0
-139 509 -729 0
140 507 509 0
140 -728 -729 0
140 507 -729 0
140 509 -728 0
-140 -507 728 0
-140 -509 729 0
141 -507 727 0
141 -505 728 0
141 -505 -507 0
141 727 728 0
-141 507 -728 0
-141 505 -727 0
142 503 505 0
142 -726 -727 0
142 503 -727 0
142 505 -726 0
-142 -503 726 0
-142 -505 727 0
143 -503 725 0
143 -501 726 0
143 -501 -503 0
143 725 726 0
-143 503 -726 0
-143 501 -725 0
144 499 501 0
144 -724 -725 0
144 499 -725 0
144 501 -724 0
-144 -499 724 0
-144 -501 725 0
145 -499 723 0
145 -497 724 0
145 -497 -499 0
145 723 724 0
-145 499 -724 0
-145 497 -723 0
146 495 497 0
146 -722 -723 0
146 495 -723 0
146 497 -722 0
-146 -495 722 0
-146 -497 723 0
147 -495 721 0
147 -493 722 0
147 -493 -495 0
147 721 722 0
-147 495 -722 0
-147 493 -721 0
148 491 493 0
148 -720 -721 0
148 491 -721 0
148 493 -720 0
-148 -491 720 0
-148 -493 721 0
149 -491 719 0
149 -489 720 0
149 -489 -491 0
149 719 720 0
-149 491 -720 0
-149 489 -719 0
150 487 489 0
150 -718 -719 0
150 487 -719 0
150 489 -718 0
-150 -487 718 0
-150 -489 719 0
151 -487 717 0
151 -485 718 0
151 -485 -487 0
151 717 718 0
-151 487 -718 0
-151 485 -717 0
152 483 485 0
152 -716 -717 0
152 483 -717 0
152 485 -716 0
-152 -483 716 0
-152 -485 717 0
153 -483 715 0
153 -481 716 0
153 -481 -483 0
153 715 716 0
-153 483 -716 0
-153 481 -715 0
154 479 481 0
154 -714 -715 0
154 479 -715 0
154 481 -714 0
-154 -479 714 0
-154 -481 715 0
155 -479 713 0
155 -477 714 0
155 -477 -479 0
155 713 714 0
-155 479 -714 0
-155 477 -713 0
156 475 477 0
156 -712 -713 0
156 475 -713 0
156 477 -712 0
-156 -475 712 0
-156 -477 713 0
157 -475 711 0
157 -473 712 0
157 -473 -475 0
157 711 712 0
-157 475 -712 0
-157 473 -711 0
158 471 473 0
158 -710 -711 0
158 471 -711 0
158 473 -710 0
-158 -471 710 0
-158 -473 711 0
159 -471 709 0
159 -469 710 0
159 -469 -471 0
159 709 710 0
-159 471 -710 0
-159 469 -709 0
160 467 469 0
160 -708 -709 0
160 467 -709 0
160 469 -708 0
-160 -467 708 0
-160 -469 709 0
161 -467 707 0
161 -465 708 0
161 -465 -467 0
161 707 708 0
-161 467 -708 0
-161 465 -707 0
162 463 465 0
162 -706 -707 0
162 463 -707 0
162 465 -706 0
-162 -463 706 0
-162 -465 707 0
163 -463 705 0
163 -461 706 0
163 -461 -463 0
163 705 706 0
-163 463 -706 0
-163 461 -705 0
164 459 461 0
164 -704 -705 0
164 459 -705 0
164 461 -704 0
-164 -459 704 0
-164 -461 705 0
165 -459 703 0
165 -457 704 0
165 -457 -459 0
165 703 704 0
-165 459 -704 0
-165 457 -703 0
166 455 457 0
166 -702 -703 0
166 455 -703 0
166 457 -702 0
-166 -455 702 0
-166 -457 703 0
167 -455 701 0
167 -453 702 0
167 -453 -455 0
167 701 702 0
-167 455 -702 0
-167 453 -701 0
168 451 453 0
168 -700 -701 0
168 451 -701 0
168 453 -700 0
-168 -451 700 0
-168 -453 701 0
169 -451 699 0
169 -449 700 0
169 -449 -451 0
169 699 700 0
-169 451 -700 0
-169 449 -699 0
170 447 449 0
170 -698 -699 0
170 447 -699 0
170 449 -698 0
-170 -447 698 0
-170 -449 699 0
171 -447 697 0
171 -445 698 0
171 -445 -447 0
171 697 698 0
-171 447 -698 0
-171 445 -697 0
172 443 445 0
172 -696 -697 0
172 443 -697 0
172 445 -696 0
-172 -443 696 0
-172 -445 697 0
173 -443 695 0
173 -441 696 0
173 -441 -443 0
173 695 696 0
-173 443 -696 0
-173 441 -695 0
174 439 441 0
174 -694 -695 0
174 439 -695 0
174 441 -694 0
-174 -439 694 0
-174 -441 695 0
175 176 -177 0
175 -439 440 176 0
-175 -176 0
-175 -440 177 0
-175 439 177 0
176 437 -438 0
-176 -437 0
-176 438 0
177 343 -344 0
177 178 -342 -344 0
-177 344 0
-177 -178 -343 0
-177 342 -343 0
178 340 -341 0
178 179 -339 -341 0
-178 341 0
-178 -179 -340 0
-178 339 -340 0
179 337 -338 0
179 180 -336 -338 0
-179 338 0
-179 -180 -337 0
-179 336 -337 0
180 334 -335 0
180 181 -333 -335 0
-180 335 0
-180 -181 -334 0
-180 333 -334 0
181 331 -332 0
181 182 -330 -332 0
-181 332 0
-181 -182 -331 0
-181 330 -331 0
182 328 -329 0
182 183 -327 -329 0
-182 329 0
-182 -183 -328 0
-182 327 -328 0
183 325 -326 0
183 184 -324 -326 0
-183 326 0
-183 -184 -325 0
-183 324 -325 0
184 322 -323 0
184 185 -321 -323 0
-184 323 0
-184 -185 -322 0
-184 321 -322 0
185 319 -320 0
185 186 -318 -320 0
-185 320 0
-185 -186 -319 0
-185 318 -319 0
186 316 -317 0
186 187 -315 -317 0
-186 317 0
-186 -187 -316 0
-186 315 -316 0
187 313 -314 0
187 188 -312 -314 0
-187 314 0
-187 -188 -313 0
-187 312 -313 0
188 310 -311 0
188 189 -309 -311 0
-188 311 0
-188 -189 -310 0
-188 309 -310 0
189 307 -308 0
189 190 -306 -308 0
-189 308 0
-189 -190 -307 0
-189 306 -307 0
190 304 -305 0
190 191 -303 -305 0
-190 305 0
-190 -191 -304 0
-190 303 -304 0
191 301 -302 0
191 192 -300 -302 0
-191 302 0
-191 -192 -301 0
-191 300 -301 0
192 298 -299 0
192 193 -297 -299 0
-192 299 0
-192 -193 -298 0
-192 297 -298 0
193 295 -296 0
193 194 -294 -296 0
-193 296 0
-193 -194 -295 0
-193 294 -295 0
194 292 -293 0
194 195 -291 -293 0
-194 293 0
-194 -195 -292 0
-194 291 -292 0
195 289 -290 0
195 196 -288 -290 0
-195 290 0
-195 -196 -289 0
-195 288 -289 0
196 286 -287 0
196 197 -285 -287 0
-196 287 0
-196 -197 -286 0
-196 285 -286 0
197 283 -284 0
197 198 -282 -284 0
-197 284 0
-197 -198 -283 0
-197 282 -283 0
198 280 -281 0
198 199 -279 -281 0
-198 281 0
-198 -199 -280 0
-198 279 -280 0
199 277 -278 0
199 200 -276 -278 0
-199 278 0
-199 -200 -277 0
-199 276 -277 0
200 274 -275 0
200 201 -273 -275 0
-200 275 0
-200 -201 -274 0
-200 273 -274 0
201 271 -272 0
201 202 -270 -272 0
-201 272 0
-201 -202 -271 0
-201 270 -271 0
202 268 -269 0
202 203 -267 -269 0
-202 269 0
-202 -203 -268 0
-202 267 -268 0
203 265 -266 0
203 204 -264 -266 0
-203 266 0
-203 -204 -265 0
-203 264 -265 0
204 262 -263 0
204 205 -261 -263 0
-204 263 0
-204 -205 -262 0
-204 261 -262 0
205 259 -260 0
205 206 -258 -260 0
-205 260 0
-205 -206 -259 0
-205 258 -259 0
206 256 -257 0
206 207 -255 -257 0
-206 257 0
-206 -207 -256 0
-206 255 -256 0
207 253 -254 0
207 208 -252 -254 0
-207 254 0
-207 -208 -253 0
-207 252 -253 0
208 250 -251 0
208 209 -249 -251 0
-208 251 0
-208 -209 -250 0
-208 249 -250 0
209 247 -248 0
209 210 -246 -248 0
-209 248 0
-209 -210 -247 0
-209 246 -247 0
210 244 -245 0
210 211 -243 -245 0
-210 245 0
-210 -211 -244 0
-210 243 -244 0
211 241 -242 0
211 212 -240 -242 0
-211 242 0
-211 -212 -241 0
-211 240 -241 0
212 238 -239 0
212 213 -237 -239 0
-212 239 0
-212 -213 -238 0
-212 237 -238 0
213 235 -236 0
213 214 -234 -236 0
-213 236 0
-213 -214 -235 0
-213 234 -235 0
214 232 -233 0
214 215 -231 -233 0
-214 233 0
-214 -215 -232 0
-214 231 -232 0
215 229 -230 0
215 216 -228 -230 0
-215 230 0
-215 -216 -229 0
-215 228 -229 0
216 226 -227 0
216 217 -225 -227 0
-216 227 0
-216 -217 -226 0
-216 225 -226 0
217 223 -224 0
217 218 -222 -224 0
-217 224 0
-217 -218 -223 0
-217 222 -223 0
218 -219 -221 0
218 220 -221 0
-218 221 0
-218 219 -220 0
219 -690 691 0
219 689 -692 0
219 689 691 0
219 -690 -692 0
-219 -689 690 0
-219 -691 692 0
220 -687 690 0
220 688 -689 0
220 688 690 0
220 -687 -689 0
-220 687 -688 0
-220 689 -690 0
221 -686 687 0
221 685 -688 0
221 685 687 0
221 -686 -688 0
-221 -685 686 0
-221 -687 688 0
222 -683 686 0
222 684 -685 0
222 684 686 0
222 -683 -685 0
-222 683 -684 0
-222 685 -686 0
223 -682 683 0
223 681 -684 0
223 681 683 0
223 -682 -684 0
-223 -681 682 0
-223 -683 684 0
224 -679 682 0
224 680 -681 0
224 680 682 0
224 -679 -681 0
-224 679 -680 0
-224 681 -682 0
225 -678 679 0
225 677 -680 0
225 677 679 0
225 -678 -680 0
-225 -677 678 0
-225 -679 680 0
226 -675 678 0
226 676 -677 0
226 676 678 0
226 -675 -677 0
-226 675 -676 0
-226 677 -678 0
227 -674 675 0
227 673 -676 0
227 673 675 0
227 -674 -676 0
-227 -673 674 0
-227 -675 676 0
228 -671 674 0
228 672 -673 0
228 672 674 0
228 -671 -673 0
-228 671 -672 0
-228 673 -674 0
229 -670 671 0
229 669 -672 0
229 669 671 0
229 -670 -672 0
-229 -669 670 0
-229 -671 672 0
230 -667 670 0
230 668 -669 0
230 668 670 0
230 -667 -669 0
-230 667 -668 0
-230 669 -670 0
231 -666 667 0
231 665 -668 0
231 665 667 0
231 -666 -668 0
-231 -665 666 0
-231 -667 668 0
232 -663 666 0
232 664 -665 0
232 664 666 0
232 -663 -665 0
-232 663 -664 0
-232 665 -666 0
233 -662 663 0
233 661 -664 0
233 661 663 0
233 -662 -664 0
-233 -661 662 0
-233 -663 664 0
234 -659 662 0
234 660 -661 0
234 660 662 0
234 -659 -661 0
-234 659 -660 0
-234 661 -662 0
235 -658 659 0
235 657 -660 0
235 657 659 0
235 -658 -660 0
-235 -657 658 0
-235 -659 660 0
236 -655 658 0
236 656 -657 0
236 656 658 0
236 -655 -657 0
-236 655 -656 0
-236 657 -658 0
237 -654 655 0
237 653 -656 0
237 653 655 0
237 -654 -656 0
-237 -653 654 0
-237 -655 656 0
238 -651 654 0
238 652 -653 0
238 652 654 0
238 -651 -653 0
-238 651 -652 0
-238 653 -654 0
239 -650 651 0
239 649 -652 0
239 649 651 0
239 -650 -652 0
-239 -649 650 0
-239 -651 652 0
240 -647 650 0
240 648 -649 0
240 648 650 0
240 -647 -649 0
-240 647 -648 0
-240 649 -650 0
241 -646 647 0
241 645 -648 0
241 645 647 0
241 -646 -648 0
-241 -645 646 0
-241 -647 648 0
242 -643 646 0
242 644 -645 0
242 644 646 0
242 -643 -645 0
-242 643 -644 0
-242 645 -646 0
243 -642 643 0
243 641 -644 0
243 641 643 0
243 -642 -644 0
-243 -641 642 0
-243 -643 644 0
244 -639 642 0
244 640 -641 0
244 640 642 0
244 -639 -641 0
-244 639 -640 0
-244 641 -642 0
245 -638 639 0
245 637 -640 0
245 637 639 0
245 -638 -640 0
-245 -637 638 0
-245 -639 640 0
246 -635 638 0
246 636 -637 0
246 636 638 0
246 -635 -637 0
-246 635 -636 0
-246 637 -638 0
247 -634 635 0
247 633 -636 0
247 633 635 0
247 -634 -636 0
-247 -633 634 0
-247 -635 636 0
248 -631 634 0
248 632 -633 0
248 632 634 0
248 -631 -633 0
-248 631 -632 0
-248 633 -634 0
249 -630 631 0
249 629 -632 0
249 629 631 0
249 -630 -632 0
-249 -629 630 0
-249 -631 632 0
250 -627 630 0
250 628 -629 0
250 628 630 0
250 -627 -629 0
-250 627 -628 0
-250 629 -630 0
251 -626 627 0
251 625 -628 0
251 625 627 0
251 -626 -628 0
-251 -625 626 0
-251 -627 628 0
252 -623 626 0
252 624 -625 0
252 624 626 0
252 -623 -625 0
-252 623 -624 0
-252 625 -626 0
253 -622 623 0
253 621 -624 0
253 621 623 0
253 -622 -624 0
-253 -621 622 0
-253 -623 624 0
254 -619 622 0
254 620 -621 0
254 620 622 0
254 -619 -621 0
-254 619 -620 0
-254 621 -622 0
255 -618 619 0
255 617 -620 0
255 617 619 0
255 -618 -620 0
-255 -617 618 0
-255 -619 620 0
256 -615 618 0
256 616 -617 0
256 616 618 0
256 -615 -617 0
-256 615 -616 0
-256 617 -618 0
257 -614 615 0
257 613 -616 0
257 613 615 0
257 -614 -616 0
-257 -613 614 0
-257 -615 616 0
258 -611 614 0
258 612 -613 0
258 612 614 0
258 -611 -613 0
-258 611 -612 0
-258 613 -614 0
259 -610 611 0
259 609 -612 0
259 609 611 0
259 -610 -612 0
-259 -609 610 0
-259 -611 612 0
260 -607 610 0
260 608 -609 0
260 608 610 0
260 -607 -609 0
-260 607 -608 0
-260 609 -610 0
261 -606 607 0
261 605 -608 0
261 605 607 0
261 -606 -608 0
-261 -605 606 0
-261 -607 608 0
262 -603 606 0
262 604 -605 0
262 604 606 0
262 -603 -605 0
-262 603 -604 0
-262 605 -606 0
263 -602 603 0
263 601 -604 0
263 601 603 0
263 -602 -604 0
-263 -601 602 0
-263 -603 604 0
264 -599 602 0
264 600 -601 0
264 600 602 0
264 -599 -601 0
-264 599 -600 0
-264 601 -602 0
265 -598 599 0
265 597 -600 0
265 597 599 0
265 -598 -600 0
-265 -597 598 0
-265 -599 600 0
266 -595 598 0
266 596 -597 0
266 596 598 0
266 -595 -597 0
-266 595 -596 0
-266 597 -598 0
267 -594 595 0
267 593 -596 0
267 593 595 0
267 -594 -596 0
-267 -593 594 0
-267 -595 596 0
268 -591 594 0
268 592 -593 0
268 592 594 0
268 -591 -593 0
-268 591 -592 0
-268 593 -594 0
269 -590 591 0
269 589 -592 0
269 589 591 0
269 -590 -592 0
-269 -589 590 0
-269 -591 592 0
270 -587 590 0
270 588 -589 0
270 588 590 0
270 -587 -589 0
-270 587 -588 0
-270 589 -590 0
271 -586 587 0
271 585 -588 0
271 585 587 0
271 -586 -588 0
-271 -585 586 0
-271 -587 588 0
272 -583 586 0
272 584 -585 0
272 584 586 0
272 -583 -585 0
-272 583 -584 0
-272 585 -586 0
273 -582 583 0
273 581 -584 0
273 581 583 0
273 -582 -584 0
-273 -581 582 0
-273 -583 584 0
274 -579 582 0
274 580 -581 0
274 580 582 0
274 -579 -581 0
-274 579 -580 0
-274 581 -582 0
275 -578 579 0
275 577 -580 0
275 577 579 0
275 -578 -580 0
-275 -577 578 0
-275 -579 580 0
276 -575 578 0
276 576 -577 0
276 576 578 0
276 -575 -577 0
-276 575 -576 0
-276 577 -578 0
277 -574 575 0
277 573 -576 0
277 573 575 0
277 -574 -576 0
-277 -573 574 0
-277 -575 576 0
278 -571 574 0
278 572 -573 0
278 572 574 0
278 -571 -573 0
-278 571 -572 0
-278 573 -574 0
279 -570 571 0
279 569 -572 0
279 569 571 0
279 -570 -572 0
-279 -569 570 0
-279 -571 572 0
280 -567 570 0
280 568 -569 0
280 568 570 0
280 -567 -569 0
-280 567 -568 0
-280 569 -570 0
281 -566 567 0
281 565 -568 0
281 565 567 0
281 -566 -568 0
-281 -565 566 0
-281 -567 568 0
282 -563 566 0
282 564 -565 0
282 564 566 0
282 -563 -565 0
-282 563 -564 0
-282 565 -566 0
283 -562 563 0
283 561 -564 0
283 561 563 0
283 -562 -564 0
-283 -561 562 0
-283 -563 564 0
284 -559 562 0
284 560 -561 0
284 560 562 0
284 -559 -561 0
-284 559 -560 0
-284 561 -562 0
285 -558 559 0
285 557 -560 0
285 557 559 0
285 -558 -560 0
-285 -557 558 0
-285 -559 560 0
286 -555 558 0
286 556 -557 0
286 556 558 0
286 -555 -557 0
-286 555 -556 0
-286 557 -558 0
287 -554 555 0
287 553 -556 0
287 553 555 0
287 -554 -556 0
-287 -553 554 0
-287 -555 556 0
288 -551 554 0
288 552 -553 0
288 552 554 0
288 -551 -553 0
-288 551 -552 0
-288 553 -554 0
289 -550 551 0
289 549 -552 0
289 549 551 0
289 -550 -552 0
-289 -549 550 0
-289 -551 552 0
290 -547 550 0
290 548 -549 0
290 548 550 0
290 -547 -549 0
-290 547 -548 0
-290 549 -550 0
291 -546 547 0
291 545 -548 0
291 545 547 0
291 -546 -548 0
-291 -545 546 0
-291 -547 548 0
292 -543 546 0
292 544 -545 0
292 544 546 0
292 -543 -545 0
-292 543 -544 0
-292 545 -546 0
293 -542 543 0
293 541 -544 0
293 541 543 0
293 -542 -544 0
-293 -541 542 0
-293 -543 544 0
294 -539 542 0
294 540 -541 0
294 540 542 0
294 -539 -541 0
-294 539 -540 0
-294 541 -542 0
295 -538 539 0
295 537 -540 0
295 537 539 0
295 -538 -540 0
-295 -537 538 0
-295 -539 540 0
296 -535 538 0
296 536 -537 0
296 536 538 0
296 -535 -537 0
-296 535 -536 0
-296 537 -538 0
297 -534 535 0
297 533 -536 0
297 533 535 0
297 -534 -536 0
-297 -533 534 0
-297 -535 536 0
298 -531 534 0
298 532 -533 0
298 532 534 0
298 -531 -533 0
-298 531 -532 0
-298 533 -534 0
299 -530 531 0
299 529 -532 0
299 529 531 0
299 -530 -532 0
-299 -529 530 0
-299 -531 532 0
300 -527 530 0
300 528 -529 0
300 528 530 0
300 -527 -529 0
-300 527 -528 0
-300 529 -530 0
301 -526 527 0
301 525 -528 0
301 525 527 0
301 -526 -528 0
-301 -525 526 0
-301 -527 528 0
302 -523 526 0
302 524 -525 0
302 524 526 0
302 -523 -525 0
-302 523 -524 0
-302 525 -526 0
303 -522 523 0
303 521 -524 0
303 521 523 0
303 -522 -524 0
-303 -521 522 0
-303 -523 524 0
304 -519 522 0
304 520 -521 0
304 520 522 0
304 -519 -521 0
-304 519 -520 0
-304 521 -522 0
305 -518 519 0
305 517 -520 0
305 517 519 0
305 -518 -520 0
-305 -517 518 0
-305 -519 520 0
306 -515 518 0
306 516 -517 0
306 516 518 0
306 -515 -517 0
-306 515 -516 0
-306 517 -518 0
307 -514 515 0
307 513 -516 0
307 513 515 0
307 -514 -516 0
-307 -513 514 0
-307 -515 516 0
308 -511 514 0
308 512 -513 0
308 512 514 0
308 -511 -513 0
-308 511 -512 0
-308 513 -514 0
309 -510 511 0
309 509 -512 0
309 509 511 0
309 -510 -512 0
-309 -509 510 0
-309 -511 512 0
310 -507 510 0
310 508 -509 0
310 508 510 0
310 -507 -509 0
-310 507 -508 0
-310 509 -510 0
311 -506 507 0
311 505 -508 0
311 505 507 0
311 -506 -508 0
-311 -505 506 0
-311 -507 508 0
312 -503 506 0
312 504 -505 0
312 504 506 0
312 -503 -505 0
-312 503 -504 0
-312 505 -506 0
313 -502 503 0
313 501 -504 0
313 501 503 0
313 -502 -504 0
-313 -501 502 0
-313 -503 504 0
314 -499 502 0
314 500 -501 0
314 500 502 0
314 -499 -501 0
-314 499 -500 0
-314 501 -502 0
315 -498 499 0
315 497 -500 0
315 497 499 0
315 -498 -500 0
-315 -497 498 0
-315 -499 500 0
316 -495 498 0
316 496 -497 0
316 496 498 0
316 -495 -497 0
-316 495 -496 0
-316 497 -498 0
317 -494 495 0
317 493 -496 0
317 493 495 0
317 -494 -496 0
-317 -493 494 0
-317 -495 496 0
318 -491 494 0
318 492 -493 0
318 492 494 0
318 -491 -493 0
-318 491 -492 0
-318 493 -494 0
319 -490 491 0
319 489 -492 0
319 489 491 0
319 -490 -492 0
-319 -489 490 0
-319 -491 492 0
320 -487 490 0
320 488 -489 0
320 488 490 0
320 -487 -489 0
-320 487 -488 0
-320 489 -490 0
321 -486 487 0
321 485 -488 0
321 485 487 0
321 -486 -488 0
-321 -485 486 0
-321 -487 488 0
322 -483 486 0
322 484 -485 0
322 484 486 0
322 -483 -485 0
-322 483 -484 0
-322 485 -486 0
323 -482 483 0
323 481 -484 0
323 481 483 0
323 -482 -484 0
-323 -481 482 0
-323 -483 484 0
324 -479 482 0
324 480 -481 0
324 480 482 0
324 -479 -481 0
-324 479 -480 0
-324 481 -482 0
325 -478 479 0
325 477 -480 0
325 477 479 0
325 -478 -480 0
-325 -477 478 0
-325 -479 480 0
326 -475 478 0
326 476 -477 0
326 476 478 0
326 -475 -477 0
-326 475 -476 0
-326 477 -478 0
327 -474 475 0
327 473 -476 0
327 473 475 0
327 -474 -476 0
-327 -473 474 0
-327 -475 476 0
328 -471 474 0
328 472 -473 0
328 472 474 0
328 -471 -473 0
-328 471 -472 0
-328 473 -474 0
329 -470 471 0
329 469 -472 0
329 469 471 0
329 -470 -472 0
-329 -469 470 0
-329 -471 472 0
330 -467 470 0
330 468 -469 0
330 468 470 0
330 -467 -469 0
-330 467 -468 0
-330 469 -470 0
331 -466 467 0
331 465 -468 0
331 465 467 0
331 -466 -468 0
-331 -465 466 0
-331 -467 468 0
332 -463 466 0
332 464 -465 0
332 464 466 0
332 -463 -465 0
-332 463 -464 0
-332 465 -466 0
333 -462 463 0
333 461 -464 0
333 461 463 0
333 -462 -464 0
-333 -461 462 0
-333 -463 464 0
334 -459 462 0
334 460 -461 0
334 460 462 0
334 -459 -461 0
-334 459 -460 0
-334 461 -462 0
335 -458 459 0
335 457 -460 0
335 457 459 0
335 -458 -460 0
-335 -457 458 0
-335 -459 460 0
336 -455 458 0
336 456 -457 0
336 456 458 0
336 -455 -457 0
-336 455 -456 0
-336 457 -458 0
337 -454 455 0
337 453 -456 0
337 453 455 0
337 -454 -456 0
-337 -453 454 0
-337 -455 456 0
338 -451 454 0
338 452 -453 0
338 452 454 0
338 -451 -453 0
-338 451 -452 0
-338 453 -454 0
339 -450 451 0
339 449 -452 0
339 449 451 0
339 -450 -452 0
-339 -449 450 0
-339 -451 452 0
340 -447 450 0
340 448 -449 0
340 448 450 0
340 -447 -449 0
-340 447 -448 0
-340 449 -450 0
341 -446 447 0
341 445 -448 0
341 445 447 0
341 -446 -448 0
-341 -445 446 0
-341 -447 448 0
342 -443 446 0
342 444 -445 0
342 444 446 0
342 -443 -445 0
-342 443 -444 0
-342 445 -446 0
343 -442 443 0
343 441 -444 0
343 441 443 0
343 -442 -444 0
-343 -441 442 0
-343 -443 444 0
344 -439 442 0
344 440 -441 0
344 440 442 0
344 -439 -441 0
-344 439 -440 0
-344 441 -442 0
345 346 411 0
345 346 390 0
345 346 423 0
-345 -346 0
-345 -390 -411 -423 0
346 -347 -368 -380 -385 0
-346 385 0
-346 347 0
-346 380 0
-346 368 0
347 -348 -353 -358 -363 0
-347 363 0
-347 348 0
-347 358 0
-347 353 0
348 -349 -350 -351 -352 0
-348 352 0
-348 349 0
-348 351 0
-348 350 0
349 -301 -302 -303 -304 0
-349 304 0
-349 301 0
-349 303 0
-349 302 0
350 -297 -298 -299 -300 0
-350 300 0
-350 297 0
-350 299 0
-350 298 0
351 -309 -310 -311 -312 0
-351 312 0
-351 309 0
-351 311 0
-351 310 0
352 -305 -306 -307 -308 0
-352 308 0
-352 305 0
-352 307 0
-352 306 0
353 -354 -355 -356 -357 0
-353 357 0
-353 354 0
-353 356 0
-353 355 0
354 -285 -286 -287 -288 0
-354 288 0
-354 285 0
-354 287 0
-354 286 0
355 -281 -282 -283 -284 0
-355 284 0
-355 281 0
-355 283 0
-355 282 0
356 -293 -294 -295 -296 0
-356 296 0
-356 293 0
-356 295 0
-356 294 0
357 -289 -290 -291 -292 0
-357 292 0
-357 289 0
-357 291 0
-357 290 0
358 -359 -360 -361 -362 0
-358 362 0
-358 359 0
-358 361 0
-358 360 0
359 -333 -334 -335 -336 0
-359 336 0
-359 333 0
-359 335 0
-359 334 0
360 -329 -330 -331 -332 0
-360 332 0
-360 329 0
-360 331 0
-360 330 0
361 -341 -342 -343 -344 0
-361 344 0
-361 341 0
-361 343 0
-361 342 0
362 -337 -338 -339 -340 0
-362 340 0
-362 337 0
-362 339 0
-362 338 0
363 -364 -365 -366 -367 0
-363 367 0
-363 364 0
-363 366 0
-363 365 0
364 -317 -318 -319 -320 0
-364 320 0
-364 317 0
-364 319 0
-364 318 0
365 -313 -314 -315 -316 0
-365 316 0
-365 313 0
-365 315 0
-365 314 0
366 -325 -326 -327 -328 0
-366 328 0
-366 325 0
-366 327 0
-366 326 0
367 -321 -322 -323 -324 0
-367 324 0
-367 321 0
-367 323 0
-367 322 0
368 -369 -374 -378 -379 0
-368 379 0
-368 369 0
-368 378 0
-368 374 0
369 -370 -371 -372 -373 0
-369 373 0
-369 370 0
-369 372 0
-369 371 0
370 -237 -238 -239 -240 0
-370 240 0
-370 237 0
-370 239 0
-370 238 0
371 -233 -234 -235 -236 0
-371 236 0
-371 233 0
-371 235 0
-371 234 0
372 -245 -246 -247 -248 0
-372 248 0
-372 245 0
-372 247 0
-372 246 0
373 -241 -242 -243 -244 0
-373 244 0
-373 241 0
-373 243 0
-373 242 0
374 -219 -220 -375 -376 0
-374 376 0
-374 219 0
-374 375 0
-374 220 0
375 -221 -222 -223 -224 0
-375 224 0
-375 221 0
-375 223 0
-375 222 0
376 -691 176 377 0
376 692 176 377 0
-376 -377 0
-376 -176 0
-376 691 -692 0
377 -439 440 0
-377 439 0
-377 -440 0
378 -229 -230 -231 -232 0
-378 232 0
-378 229 0
-378 231 0
-378 230 0
379 -225 -226 -227 -228 0
-379 228 0
-379 225 0
-379 227 0
-379 226 0
380 -381 -382 -383 -384 0
-380 384 0
-380 381 0
-380 383 0
-380 382 0
381 -269 -270 -271 -272 0
-381 272 0
-381 269 0
-381 271 0
-381 270 0
382 -265 -266 -267 -268 0
-382 268 0
-382 265 0
-382 267 0
-382 266 0
383 -277 -278 -279 -280 0
-383 280 0
-383 277 0
-383 279 0
-383 278 0
384 -273 -274 -275 -276 0
-384 276 0
-384 273 0
-384 275 0
-384 274 0
385 -386 -387 -388 -389 0
-385 389 0
-385 386 0
-385 388 0
-385 387 0
386 -253 -254 -255 -256 0
-386 256 0
-386 253 0
-386 255 0
-386 254 0
387 -249 -250 -251 -252 0
-387 252 0
-387 249 0
-387 251 0
-387 250 0
388 -261 -262 -263 -264 0
-388 264 0
-388 261 0
-388 263 0
-388 262 0
389 -257 -258 -259 -260 0
-389 260 0
-389 257 0
-389 259 0
-389 258 0
390 -391 -396 -401 -406 0
-390 406 0
-390 391 0
-390 401 0
-390 396 0
391 -392 -393 -394 -395 0
-391 395 0
-391 392 0
-391 394 0
-391 393 0
392 -131 -132 -133 -134 0
-392 134 0
-392 131 0
-392 133 0
-392 132 0
393 -127 -128 -129 -130 0
-393 130 0
-393 127 0
-393 129 0
-393 128 0
394 -139 -140 -141 -142 0
-394 142 0
-394 139 0
-394 141 0
-394 140 0
395 -135 -136 -137 -138 0
-395 138 0
-395 135 0
-395 137 0
-395 136 0
396 -397 -398 -399 -400 0
-396 400 0
-396 397 0
-396 399 0
-396 398 0
397 -115 -116 -117 -118 0
-397 118 0
-397 115 0
-397 117 0
-397 116 0
398 -111 -112 -113 -114 0
-398 114 0
-398 111 0
-398 113 0
-398 112 0
399 -123 -124 -125 -126 0
-399 126 0
-399 123 0
-399 125 0
-399 124 0
400 -119 -120 -121 -122 0
-400 122 0
-400 119 0
-400 121 0
-400 120 0
401 -402 -403 -404 -405 0
-401 405 0
-401 402 0
-401 404 0
-401 403 0
402 -163 -164 -165 -166 0
-402 166 0
-402 163 0
-402 165 0
-402 164 0
403 -159 -160 -161 -162 0
-403 162 0
-403 159 0
-403 161 0
-403 160 0
404 -171 -172 -173 -174 0
-404 174 0
-404 171 0
-404 173 0
-404 172 0
405 -167 -168 -169 -170 0
-405 170 0
-405 167 0
-405 169 0
-405 168 0
406 -407 -408 -409 -410 0
-406 410 0
-406 407 0
-406 409 0
-406 408 0
407 -147 -148 -149 -150 0
-407 150 0
-407 147 0
-407 149 0
-407 148 0
408 -143 -144 -145 -146 0
-408 146 0
-408 143 0
-408 145 0
-408 144 0
409 -155 -156 -157 -158 0
-409 158 0
-409 155 0
-409 157 0
-409 156 0
410 -151 -152 -153 -154 0
-410 154 0
-410 151 0
-410 153 0
-410 152 0
411 -412 -417 -421 -422 0
-411 422 0
-411 412 0
-411 421 0
-411 417 0
412 -413 -414 -415 -416 0
-412 416 0
-412 413 0
-412 415 0
-412 414 0
413 -67 -68 -69 -70 0
-413 70 0
-413 67 0
-413 69 0
-413 68 0
414 -63 -64 -65 -66 0
-414 66 0
-414 63 0
-414 65 0
-414 64 0
415 -75 -76 -77 -78 0
-415 78 0
-415 75 0
-415 77 0
-415 76 0
416 -71 -72 -73 -74 0
-416 74 0
-416 71 0
-416 73 0
-416 72 0
417 -49 -50 -418 -419 0
-417 419 0
-417 49 0
-417 418 0
-417 50 0
418 -51 -52 -53 -54 0
-418 54 0
-418 51 0
-418 53 0
-418 52 0
419 691 6 420 0
419 -820 6 420 0
-419 -420 0
-419 -6 0
-419 -691 820 0
420 439 -694 0
-420 -439 0
-420 694 0
421 -59 -60 -61 -62 0
-421 62 0
-421 59 0
-421 61 0
-421 60 0
422 -55 -56 -57 -58 0
-422 58 0
-422 55 0
-422 57 0
-422 56 0
423 -424 -429 -432 -433 0
-423 433 0
-423 424 0
-423 432 0
-423 429 0
424 -425 -426 -427 -428 0
-424 428 0
-424 425 0
-424 427 0
-424 426 0
425 -99 -100 -101 -102 0
-425 102 0
-425 99 0
-425 101 0
-425 100 0
426 -95 -96 -97 -98 0
-426 98 0
-426 95 0
-426 97 0
-426 96 0
427 -107 -108 -109 -110 0
-427 110 0
-427 107 0
-427 109 0
-427 108 0
428 -103 -104 -105 -106 0
-428 106 0
-428 103 0
-428 105 0
-428 104 0
429 -81 -82 -430 -431 0
-429 431 0
-429 81 0
-429 430 0
-429 82 0
430 -83 -84 -85 -86 0
-430 86 0
-430 83 0
-430 85 0
-430 84 0
431 -79 -80 0
-431 79 0
-431 80 0
432 -91 -92 -93 -94 0
-432 94 0
-432 91 0
-432 93 0
-432 92 0
433 -87 -88 -89 -90 0
-433 90 0
-433 87 0
-433 89 0
-433 88 0
434 -437 -438 0
434 437 693 0
-434 -437 438 0
-434 437 -693 0
435 -437 -438 -436 0
435 437 693 -436 0
-435 436 0
-435 -437 438 0
-435 437 -693 0
436 5 175 345 0
-436 -5 0
-436 -345 0
-436 -175 0
821 0
2 -4 0
-2 4 0
3 -435 0
-3 435 0
3 0

